1207
500000
329576
329576
329576
329576
329576
324975
324975
324975
324975
324975
324975
324975
324975
324975
323065
323065
323065
323065
323065
323065
323065
323065
323065
323065
323065
323065
323065
323065
323065
322817
320918
320918
320918
320918
320918
320918
320918
320918
320918
320918
320918
320918
320918
320918
320918
320918
320918
320918
320703
316829
316829
316829
316829
316829
316829
316829
316829
316829
316829
316829
316829
316829
316829
316829
316829
316829
316829
316829
315714
314682
314682
310360
310360
310360
310360
310360
310360
310360
310360
310360
310360
310360
310360
310360
310360
310360
310360
301408
301408
301408
301408
301408
301408
301408
301408
301408
301408
301408
301408
301408
298228
298228
298228
298228
298228
298228
298228
298228
298228
298228
298228
295264
289167
289167
289167
289167
289167
289167
289167
289167
289167
289167
289167
289167
289167
287573
287573
287573
287573
287573
287573
287573
287573
287573
287573
287573
287573
287573
287573
287573
287573
287573
287573
287573
286365
286365
286365
286365
286365
286365
286365
286365
286365
286365
284064
284064
284064
279862
279862
279862
279862
279862
279862
279862
279862
279862
279862
279862
277909
277909
277909
277909
277909
277909
277909
276600
276527
276527
276527
276527
276527
276527
276527
276527
274043
274043
274043
274043
274043
274043
274043
274043
274043
274043
274043
271884
271884
271884
271884
271884
271884
271884
271884
271884
271884
271884
271884
271884
271884
271884
271884
269643
269643
269643
269643
269643
269643
269643
269643
269643
269643
269643
269643
269643
269643
269643
269643
269643
269643
269643
269643
267415
267415
267415
267415
267415
267415
267415
267415
267415
267415
267415
267415
267415
266751
266751
266751
266751
266751
266751
266751
266751
266751
266751
266751
266751
266751
266751
266751
266751
266751
266751
266751
262224
262224
262224
262224
262224
262224
262224
262224
262224
262224
262224
262224
262224
262224
262224
262224
260086
260086
260086
260086
260086
260086
260086
260086
259707
259707
259707
259707
259707
259707
259707
259707
259707
257249
257249
257249
257249
257249
257249
257249
257249
257249
256355
256355
256355
256355
256355
256355
256355
256355
256355
256355
256355
256355
256355
256355
256355
256355
256355
253628
253628
253628
253628
253628
253628
253628
253628
253477
253477
253477
253477
253477
253477
250282
250282
250282
250282
250282
250282
250282
250170
250170
250170
250170
250170
250170
250170
250170
250170
250170
250170
250170
250170
250170
249796
249796
249796
249796
249796
249796
249796
249796
249796
249796
249796
249796
249796
249796
246457
246457
246457
246457
246457
246457
246457
246457
246457
246457
246457
246457
246457
246457
246457
245818
245818
245818
245818
245818
245818
245818
245818
245818
245818
245818
245818
245818
245818
245818
245818
245818
245818
245818
245308
245308
245308
245308
245308
245308
245308
245308
245308
245308
245308
241653
241653
241653
241653
237953
237953
237953
237023
237023
237023
237023
237023
230971
230971
230971
230971
230971
229762
229762
229762
229762
229762
229762
229762
229762
229762
229762
229762
229762
229762
229762
228155
228155
228155
228155
228155
228155
228155
226448
224373
224373
224373
219785
219785
219785
219785
219785
219785
219785
219785
219785
216646
216646
216646
216646
216646
216646
216646
216040
216040
216040
216040
216040
216040
216040
216040
211724
211724
211724
211724
211724
211724
211724
211724
211724
211724
211724
211724
211724
209786
209786
209528
209528
209528
209528
209528
209528
209528
208497
208369
208369
208369
208369
208369
208369
208369
208369
208369
208369
208369
208369
208369
208369
208369
208369
208369
208369
204916
204916
204916
204916
204916
204916
204916
204916
204916
204916
204600
204600
202784
202784
202784
202784
202784
202784
202784
202784
202784
202784
202784
202784
202784
202784
202784
202784
202784
200251
200251
190579
190579
190579
190579
190579
190579
190579
190579
190579
190579
190579
190579
190579
190579
190579
190579
190579
190579
190025
189645
189645
189645
189645
189645
189645
189645
189645
189645
189645
185444
185444
185444
185444
185444
185444
185444
185444
185444
185444
185444
185444
185444
185444
185444
185444
185444
181440
181440
181440
181440
181440
181440
181440
181440
180476
180476
180476
180476
180476
180476
180476
178118
178118
178118
178118
178118
178118
178118
178118
178118
178118
178118
178118
178118
178118
178118
178118
178118
174343
174343
174343
174343
174343
174343
174343
174343
174343
174343
174343
174343
174343
174343
165639
165639
165639
165639
165639
165639
165639
165639
165639
165639
165639
165639
165639
165639
165639
165639
165639
165639
165639
165639
165591
162252
162252
162252
162252
162252
162252
162252
162252
162252
162252
162252
162252
162252
162252
162252
162252
162252
162252
159459
159459
159459
159459
159459
159459
156326
156326
156326
156326
154119
148431
148431
148431
148431
148431
148431
148431
148431
148431
148070
141269
141269
141269
141269
141269
141269
140621
140621
140621
140621
140621
140621
140621
140621
140621
140621
140621
140621
137564
137564
137564
137564
137564
137564
137564
137564
133714
133714
133714
133714
133714
133714
133714
133714
133714
133714
133714
133714
133714
133714
133714
133714
133714
133714
133714
133714
131704
131704
131704
131704
131704
131704
131704
131704
131704
131704
122306
120205
120205
120205
120205
120205
120205
120205
120205
120205
120205
120205
117871
117871
117871
117871
117871
117871
117871
117871
115388
115388
115388
115388
115388
115388
115388
115388
106180
106180
106180
106180
106180
106180
106180
106180
106180
106180
106180
106180
106180
106180
103211
103211
103211
103211
103211
103211
103211
103211
103211
103211
103211
103211
101613
101613
101613
101613
101613
101613
101613
101613
101613
101613
101613
101613
101613
101613
101613
101613
101613
101613
100574
100574
100574
100574
100574
100574
100574
100574
100574
100574
100574
100574
100574
100574
100574
100574
100574
98282
98282
98282
98282
98282
98282
98282
98282
98282
96674
96674
96674
96674
96674
96674
91791
91791
80738
80738
80738
80738
80738
80738
80738
80738
80738
80738
69779
69779
69779
69779
69779
69779
69779
69779
65020
65020
65020
65020
65020
65020
65020
64180
64180
64180
64180
62142
62142
62142
62142
62142
62142
62142
62142
61660
61660
61660
61660
61660
61660
61660
61660
61660
61660
61660
61660
61660
61660
61660
61660
61164
61164
61164
61164
61164
61164
61164
61164
61164
61164
58783
58783
58783
58783
58783
58783
58783
57075
57075
57075
55657
53642
53642
53054
53054
53054
53054
53054
53054
53054
53054
53054
53054
53054
53054
53054
53054
52435
52435
52435
52435
52435
52435
52435
52435
52435
52435
52435
52435
52435
52435
52435
49237
49237
49237
49237
49237
49237
49237
47329
47329
47329
47329
47329
46167
46167
46167
46167
46167
46167
46167
46167
46167
46167
46167
46167
46167
46167
46167
46167
46167
46167
45325
45325
45325
45325
45325
45325
45325
45325
45325
45325
45325
45325
45325
45325
45325
45325
39395
39395
39395
39395
39395
39395
37055
37055
37055
37055
37055
37055
37055
37055
37055
37055
37055
37055
37055
37055
37055
37040
37040
37040
37040
37040
37040
37040
37040
37040
36452
36452
36452
36452
36452
36452
36452
36452
36452
36452
36452
34396
34396
34396
34396
34396
34396
34396
34396
34396
34396
34396
30504
30504
30504
30504
30504
30504
30504
30504
30504
30504
30504
28971
28971
28971
28971
28971
28971
28971
28971
28971
28971
28971
28971
28971
28971
28971
28971
25437
25437
25437
25437
25437
25437
25437
25437
25437
25437
25437
25437
22694
22694
22694
22628
22628
22628
22628
22628
22628
22628
22628
22628
22628
20142
20142
20142
20142
20142
20142
20142
20142
20142
20142
20142
20142
20142
20142
20142
20142
20142
20142
20142
20142
19512
19512
17346
17346
17346
17346
17346
17346
17346
17346
8450
8450
8450
8450
8450
8450
8450
8450
8450
8450
8450
8450
8450
8450
5839
5839
5839
5839
5839
5839
5839
5839
5839
5839
5839
5839
5839
5839
5839
5839
5839
4390
4390
4390
4390
4390
4390
4390
4390
4390
4390
4085
4085
4085
4085
4085
4085
4085
4085
4085
4085
4085
4085
4085
